QPLIB_2202
LGQ
minimize
275 # number of variables
270 # number of constraints
0.0 # default value for linear coefficients in objective
90 # number of non-default linear coefficients in objective
1 1.0
2 1.0
3 1.0
4 1.0
5 1.0
6 1.0
7 1.0
8 1.0
9 1.0
10 1.0
11 1.0
12 1.0
13 1.0
14 1.0
15 1.0
16 1.0
17 1.0
18 1.0
19 1.0
20 1.0
21 1.0
22 1.0
23 1.0
24 1.0
25 1.0
26 1.0
27 1.0
28 1.0
29 1.0
30 1.0
31 1.0
32 1.0
33 1.0
34 1.0
35 1.0
36 1.0
37 1.0
38 1.0
39 1.0
40 1.0
41 1.0
42 1.0
43 1.0
44 1.0
45 1.0
46 1.0
47 1.0
48 1.0
49 1.0
50 1.0
51 1.0
52 1.0
53 1.0
54 1.0
55 1.0
56 1.0
57 1.0
58 1.0
59 1.0
60 1.0
61 1.0
62 1.0
63 1.0
64 1.0
65 1.0
66 1.0
67 1.0
68 1.0
69 1.0
70 1.0
71 1.0
72 1.0
73 1.0
74 1.0
75 1.0
76 1.0
77 1.0
78 1.0
79 1.0
80 1.0
81 1.0
82 1.0
83 1.0
84 1.0
85 1.0
86 1.0
87 1.0
88 1.0
89 1.0
90 1.0
0.0 # objective constant
90 # number of quadratic terms in all constraints
181 1663070068 1651076122 2.0
182 1852403556 824206179 2.0
183 1768711012 12321 2.0
184 775173731 1 2.0
185 1646292852 1 2.0
186 824209008 1 2.0
187 12321 50 2.0
188 1 1 2.0
189 1651076122 10158081 2.0
190 1852403556 1 2.0
191 1768711012 50 2.0
192 775173731 1 2.0
193 1651076122 1646292852 2.0
194 1852403556 824209008 2.0
195 1768711012 12321 2.0
196 775173731 1 2.0
197 1663070068 10158081 2.0
198 824206179 1 2.0
199 12321 50 2.0
200 1 1 2.0
201 1651076122 193 2.0
202 1852403556 1 2.0
203 1768711012 50 2.0
204 775173731 1 2.0
205 1663070068 1651076122 2.0
206 1852403556 824206179 2.0
207 1768711012 12321 2.0
208 775173731 1 2.0
209 1663070068 193 2.0
210 824210800 1 2.0
211 1679241249 50 2.0
212 32556 1 2.0
213 1651076122 1 2.0
214 1852403556 1 2.0
215 1768711012 50 2.0
216 775173731 1 2.0
217 1663070068 1651076122 2.0
218 1852403556 824210800 2.0
219 1768711012 1679241249 2.0
220 775173731 32556 2.0
221 1763733364 1 2.0
222 824209265 1 2.0
223 12321 50 2.0
224 1 1 2.0
225 1651076122 1 2.0
226 1852403556 1 2.0
227 1768711012 50 2.0
228 775173731 1 2.0
229 1763733364 1651076122 2.0
230 1852403556 824209265 2.0
231 1768711012 12321 2.0
232 775173731 1 2.0
233 1864396660 1 2.0
234 824205172 1 2.0
235 12321 50 2.0
236 1 1 2.0
237 1651076122 1 2.0
238 1852403556 1 2.0
239 1768711012 50 2.0
240 775173731 1 2.0
241 1864396660 1651076122 2.0
242 1852403556 824205172 2.0
243 1768711012 12321 2.0
244 775173731 1 2.0
245 1931505524 1 2.0
246 824209508 1 2.0
247 1679241505 50 2.0
248 32556 1 2.0
249 1651076122 385 2.0
250 1852403556 1 2.0
251 1768711012 50 2.0
252 775173731 1 2.0
253 1931505524 1651076121 2.0
254 1684959076 824209508 2.0
255 1679241505 1651076196 2.0
256 1932407863 32556 2.0
257 1868767344 385 2.0
258 540090479 1 2.0
259 50 50 2.0
260 1 1 2.0
261 1651076121 10195441 2.0
262 1684959076 1 2.0
263 1651076196 50 2.0
264 1932407863 1 2.0
265 1868767344 1651076121 2.0
266 1684959076 540090479 2.0
267 1651076196 50 2.0
268 1932407863 1 2.0
269 1868767344 10195441 2.0
270 540090479 1 2.0
714 # number of linear terms in all constraints
1 91 -66.0
1 92 49.0
1 93 -81.0
1 94 73.0
1 95 15.0
1 96 -1.0
2 91 38.0
2 92 -26.0
2 93 74.0
2 94 48.0
2 95 -11.0
2 97 -1.0
3 91 46.0
3 92 -48.0
3 93 -21.0
3 94 55.0
3 95 68.0
3 98 -1.0
4 91 42.0
4 92 -84.0
4 93 -9.0
4 94 -78.0
4 95 8.0
4 99 -1.0
5 91 13.0
5 92 91.0
5 93 73.0
5 94 -68.0
5 95 -45.0
5 100 -1.0
6 91 84.0
6 92 -13.0
6 93 57.0
6 94 -75.0
6 95 -84.0
6 101 -1.0
7 91 -95.0
7 92 -70.0
7 93 -24.0
7 94 -69.0
7 95 5.0
7 102 -1.0
8 91 -14.0
8 92 -47.0
8 93 -37.0
8 94 53.0
8 95 -79.0
8 103 -1.0
9 91 40.0
9 92 -57.0
9 93 52.0
9 94 -18.0
9 95 29.0
9 104 -1.0
10 92 37.0
10 93 -13.0
10 94 21.0
10 95 14.0
10 105 -1.0
11 91 -7.0
11 92 26.0
11 93 -73.0
11 94 92.0
11 95 -71.0
11 106 -1.0
12 91 -35.0
12 92 90.0
12 93 -29.0
12 94 -20.0
12 95 -80.0
12 107 -1.0
13 91 96.0
13 92 14.0
13 93 73.0
13 94 -70.0
13 95 81.0
13 108 -1.0
14 91 -88.0
14 92 90.0
14 93 93.0
14 94 56.0
14 95 60.0
14 109 -1.0
15 91 -44.0
15 92 92.0
15 93 15.0
15 94 -13.0
15 95 -25.0
15 110 -1.0
16 91 -95.0
16 92 53.0
16 93 44.0
16 94 17.0
16 95 -15.0
16 111 -1.0
17 91 49.0
17 92 -87.0
17 93 -90.0
17 94 54.0
17 95 40.0
17 112 -1.0
18 91 -40.0
18 92 -86.0
18 93 37.0
18 94 -27.0
18 95 45.0
18 113 -1.0
19 91 -69.0
19 92 -68.0
19 93 66.0
19 94 9.0
19 95 -37.0
19 114 -1.0
20 91 -13.0
20 92 -58.0
20 93 45.0
20 94 -100.0
20 95 16.0
20 115 -1.0
21 91 87.0
21 92 52.0
21 93 -75.0
21 94 -98.0
21 116 -1.0
22 91 70.0
22 92 -82.0
22 93 71.0
22 94 57.0
22 95 15.0
22 117 -1.0
23 91 65.0
23 92 49.0
23 93 81.0
23 94 1.0
23 95 76.0
23 118 -1.0
24 91 12.0
24 92 -5.0
24 93 -17.0
24 94 29.0
24 95 75.0
24 119 -1.0
25 91 -56.0
25 92 99.0
25 93 -69.0
25 94 38.0
25 95 40.0
25 120 -1.0
26 91 29.0
26 92 30.0
26 93 68.0
26 94 36.0
26 95 93.0
26 121 -1.0
27 91 59.0
27 92 -68.0
27 93 72.0
27 94 20.0
27 95 -16.0
27 122 -1.0
28 91 73.0
28 92 -7.0
28 93 -51.0
28 94 68.0
28 95 68.0
28 123 -1.0
29 91 -74.0
29 92 -5.0
29 93 56.0
29 95 13.0
29 124 -1.0
30 91 -93.0
30 92 -34.0
30 93 -15.0
30 94 16.0
30 95 -83.0
30 125 -1.0
31 91 17.0
31 92 -53.0
31 93 48.0
31 94 91.0
31 95 72.0
31 126 -1.0
32 91 7.0
32 92 -24.0
32 93 -100.0
32 94 43.0
32 95 -90.0
32 127 -1.0
33 91 51.0
33 92 25.0
33 93 86.0
33 94 9.0
33 95 -17.0
33 128 -1.0
34 91 -61.0
34 92 -39.0
34 93 -58.0
34 94 21.0
34 95 -26.0
34 129 -1.0
35 91 -8.0
35 92 60.0
35 93 -64.0
35 94 43.0
35 95 -5.0
35 130 -1.0
36 91 26.0
36 92 -52.0
36 93 -76.0
36 94 74.0
36 95 -80.0
36 131 -1.0
37 91 -24.0
37 92 10.0
37 93 -85.0
37 94 -25.0
37 95 24.0
37 132 -1.0
38 91 -16.0
38 92 64.0
38 93 9.0
38 94 45.0
38 95 -2.0
38 133 -1.0
39 92 -2.0
39 93 -2.0
39 94 69.0
39 95 83.0
39 134 -1.0
40 91 8.0
40 92 20.0
40 93 21.0
40 94 -12.0
40 95 41.0
40 135 -1.0
41 91 52.0
41 92 -39.0
41 93 57.0
41 94 -82.0
41 95 79.0
41 136 -1.0
42 91 93.0
42 92 23.0
42 93 -87.0
42 94 -78.0
42 95 25.0
42 137 -1.0
43 91 11.0
43 92 -53.0
43 93 22.0
43 94 86.0
43 95 13.0
43 138 -1.0
44 91 -7.0
44 92 -76.0
44 93 -53.0
44 94 99.0
44 95 11.0
44 139 -1.0
45 91 -43.0
45 92 45.0
45 93 64.0
45 94 -2.0
45 95 18.0
45 140 -1.0
46 91 -69.0
46 92 39.0
46 93 18.0
46 94 76.0
46 95 -14.0
46 141 -1.0
47 91 -64.0
47 92 37.0
47 93 -57.0
47 94 -47.0
47 95 -56.0
47 142 -1.0
48 91 -47.0
48 92 -11.0
48 93 -53.0
48 94 -41.0
48 95 29.0
48 143 -1.0
49 91 38.0
49 92 -15.0
49 93 51.0
49 94 -20.0
49 95 -25.0
49 144 -1.0
50 91 6.0
50 92 79.0
50 93 30.0
50 94 86.0
50 95 -99.0
50 145 -1.0
51 91 28.0
51 92 52.0
51 93 34.0
51 94 53.0
51 95 50.0
51 146 -1.0
52 91 -57.0
52 92 26.0
52 93 19.0
52 94 24.0
52 95 -27.0
52 147 -1.0
53 91 -50.0
53 92 -28.0
53 93 -3.0
53 95 -42.0
53 148 -1.0
54 91 32.0
54 92 79.0
54 93 33.0
54 94 -92.0
54 95 67.0
54 149 -1.0
55 91 -64.0
55 92 -95.0
55 93 -5.0
55 94 12.0
55 95 -67.0
55 150 -1.0
56 91 28.0
56 92 -39.0
56 93 91.0
56 94 52.0
56 95 26.0
56 151 -1.0
57 91 -74.0
57 92 51.0
57 93 -4.0
57 94 42.0
57 95 -77.0
57 152 -1.0
58 91 -20.0
58 92 40.0
58 93 56.0
58 94 40.0
58 95 -47.0
58 153 -1.0
59 91 -74.0
59 92 -45.0
59 93 -84.0
59 94 -58.0
59 95 -61.0
59 154 -1.0
60 91 20.0
60 92 9.0
60 93 13.0
60 94 -75.0
60 95 -86.0
60 155 -1.0
61 91 -70.0
61 92 12.0
61 93 -37.0
61 94 -33.0
61 95 -59.0
61 156 -1.0
62 91 -93.0
62 92 -92.0
62 93 63.0
62 94 -88.0
62 95 41.0
62 157 -1.0
63 91 77.0
63 92 87.0
63 93 -100.0
63 94 -30.0
63 95 87.0
63 158 -1.0
64 91 -28.0
64 92 95.0
64 93 -95.0
64 94 -32.0
64 95 69.0
64 159 -1.0
65 91 40.0
65 92 13.0
65 93 -80.0
65 94 -64.0
65 95 -52.0
65 160 -1.0
66 91 97.0
66 92 2.0
66 93 80.0
66 94 -7.0
66 95 -5.0
66 161 -1.0
67 91 51.0
67 92 -77.0
67 93 -71.0
67 94 39.0
67 95 -48.0
67 162 -1.0
68 91 -87.0
68 92 -71.0
68 93 -18.0
68 94 -84.0
68 95 27.0
68 163 -1.0
69 91 -52.0
69 92 15.0
69 93 -68.0
69 94 -47.0
69 95 -85.0
69 164 -1.0
70 91 -83.0
70 92 -72.0
70 93 -6.0
70 94 44.0
70 95 -5.0
70 165 -1.0
71 91 -1.0
71 92 -84.0
71 93 -41.0
71 94 -41.0
71 95 -34.0
71 166 -1.0
72 91 -81.0
72 92 -60.0
72 93 -79.0
72 94 -66.0
72 95 66.0
72 167 -1.0
73 91 84.0
73 92 6.0
73 93 -6.0
73 94 39.0
73 95 1.0
73 168 -1.0
74 91 96.0
74 92 -7.0
74 93 33.0
74 94 78.0
74 95 70.0
74 169 -1.0
75 91 42.0
75 92 -83.0
75 93 59.0
75 94 -25.0
75 95 -9.0
75 170 -1.0
76 91 55.0
76 92 19.0
76 93 -89.0
76 94 -76.0
76 95 11.0
76 171 -1.0
77 91 -88.0
77 92 4.0
77 93 68.0
77 94 -69.0
77 95 -100.0
77 172 -1.0
78 91 -57.0
78 92 -63.0
78 93 93.0
78 94 63.0
78 95 41.0
78 173 -1.0
79 91 35.0
79 92 54.0
79 93 -54.0
79 94 -57.0
79 95 -26.0
79 174 -1.0
80 91 -68.0
80 92 22.0
80 93 -76.0
80 94 -13.0
80 95 -100.0
80 175 -1.0
81 91 -8.0
81 92 37.0
81 93 -94.0
81 94 -19.0
81 176 -1.0
82 91 99.0
82 92 -27.0
82 93 -26.0
82 94 90.0
82 95 -84.0
82 177 -1.0
83 91 58.0
83 92 -29.0
83 93 94.0
83 94 -64.0
83 95 -14.0
83 178 -1.0
84 91 -77.0
84 92 6.0
84 93 -52.0
84 94 22.0
84 95 55.0
84 179 -1.0
85 91 -2.0
85 92 86.0
85 93 -37.0
85 94 -28.0
85 95 -80.0
85 180 -1.0
86 91 77.0
86 92 78.0
86 93 97.0
86 94 -79.0
86 95 -70.0
86 181 -1.0
87 91 56.0
87 92 75.0
87 93 -48.0
87 94 -75.0
87 95 7.0
87 182 -1.0
88 91 -23.0
88 92 -26.0
88 93 -5.0
88 94 45.0
88 95 86.0
88 183 -1.0
89 91 -5.0
89 92 91.0
89 93 -40.0
89 94 -10.0
89 95 64.0
89 184 -1.0
90 91 45.0
90 92 -31.0
90 93 31.0
90 94 72.0
90 95 32.0
90 185 -1.0
91 1 -1.0
91 186 -1.0
92 2 -1.0
92 187 -1.0
93 3 -1.0
93 188 -1.0
94 4 -1.0
94 189 -1.0
95 5 -1.0
95 190 -1.0
96 6 -1.0
96 191 -1.0
97 7 -1.0
97 192 -1.0
98 8 -1.0
98 193 -1.0
99 9 -1.0
99 194 -1.0
100 10 -1.0
100 195 -1.0
101 11 -1.0
101 196 -1.0
102 12 -1.0
102 197 -1.0
103 13 -1.0
103 198 -1.0
104 14 -1.0
104 199 -1.0
105 15 -1.0
105 200 -1.0
106 16 -1.0
106 201 -1.0
107 17 -1.0
107 202 -1.0
108 18 -1.0
108 203 -1.0
109 19 -1.0
109 204 -1.0
110 20 -1.0
110 205 -1.0
111 21 -1.0
111 206 -1.0
112 22 -1.0
112 207 -1.0
113 23 -1.0
113 208 -1.0
114 24 -1.0
114 209 -1.0
115 25 -1.0
115 210 -1.0
116 26 -1.0
116 211 -1.0
117 27 -1.0
117 212 -1.0
118 28 -1.0
118 213 -1.0
119 29 -1.0
119 214 -1.0
120 30 -1.0
120 215 -1.0
121 31 -1.0
121 216 -1.0
122 32 -1.0
122 217 -1.0
123 33 -1.0
123 218 -1.0
124 34 -1.0
124 219 -1.0
125 35 -1.0
125 220 -1.0
126 36 -1.0
126 221 -1.0
127 37 -1.0
127 222 -1.0
128 38 -1.0
128 223 -1.0
129 39 -1.0
129 224 -1.0
130 40 -1.0
130 225 -1.0
131 41 -1.0
131 226 -1.0
132 42 -1.0
132 227 -1.0
133 43 -1.0
133 228 -1.0
134 44 -1.0
134 229 -1.0
135 45 -1.0
135 230 -1.0
136 46 -1.0
136 231 -1.0
137 47 -1.0
137 232 -1.0
138 48 -1.0
138 233 -1.0
139 49 -1.0
139 234 -1.0
140 50 -1.0
140 235 -1.0
141 51 -1.0
141 236 -1.0
142 52 -1.0
142 237 -1.0
143 53 -1.0
143 238 -1.0
144 54 -1.0
144 239 -1.0
145 55 -1.0
145 240 -1.0
146 56 -1.0
146 241 -1.0
147 57 -1.0
147 242 -1.0
148 58 -1.0
148 243 -1.0
149 59 -1.0
149 244 -1.0
150 60 -1.0
150 245 -1.0
151 61 -1.0
151 246 -1.0
152 62 -1.0
152 247 -1.0
153 63 -1.0
153 248 -1.0
154 64 -1.0
154 249 -1.0
155 65 -1.0
155 250 -1.0
156 66 -1.0
156 251 -1.0
157 67 -1.0
157 252 -1.0
158 68 -1.0
158 253 -1.0
159 69 -1.0
159 254 -1.0
160 70 -1.0
160 255 -1.0
161 71 -1.0
161 256 -1.0
162 72 -1.0
162 257 -1.0
163 73 -1.0
163 258 -1.0
164 74 -1.0
164 259 -1.0
165 75 -1.0
165 260 -1.0
166 76 -1.0
166 261 -1.0
167 77 -1.0
167 262 -1.0
168 78 -1.0
168 263 -1.0
169 79 -1.0
169 264 -1.0
170 80 -1.0
170 265 -1.0
171 81 -1.0
171 266 -1.0
172 82 -1.0
172 267 -1.0
173 83 -1.0
173 268 -1.0
174 84 -1.0
174 269 -1.0
175 85 -1.0
175 270 -1.0
176 86 -1.0
176 271 -1.0
177 87 -1.0
177 272 -1.0
178 88 -1.0
178 273 -1.0
179 89 -1.0
179 274 -1.0
180 90 -1.0
180 275 -1.0
1.79769313486232E+308 # value for infinity
0.0 # default left-hand-side value
180 # number of non-default left-hand-sides
1 -1.79769313486232E+308
2 -1.79769313486232E+308
3 -1.79769313486232E+308
4 -1.79769313486232E+308
5 -1.79769313486232E+308
6 -1.79769313486232E+308
7 -1.79769313486232E+308
8 -1.79769313486232E+308
9 -1.79769313486232E+308
10 -1.79769313486232E+308
11 -1.79769313486232E+308
12 -1.79769313486232E+308
13 -1.79769313486232E+308
14 -1.79769313486232E+308
15 -1.79769313486232E+308
16 -1.79769313486232E+308
17 -1.79769313486232E+308
18 -1.79769313486232E+308
19 -1.79769313486232E+308
20 -1.79769313486232E+308
21 -1.79769313486232E+308
22 -1.79769313486232E+308
23 -1.79769313486232E+308
24 -1.79769313486232E+308
25 -1.79769313486232E+308
26 -1.79769313486232E+308
27 -1.79769313486232E+308
28 -1.79769313486232E+308
29 -1.79769313486232E+308
30 -1.79769313486232E+308
31 -1.79769313486232E+308
32 -1.79769313486232E+308
33 -1.79769313486232E+308
34 -1.79769313486232E+308
35 -1.79769313486232E+308
36 -1.79769313486232E+308
37 -1.79769313486232E+308
38 -1.79769313486232E+308
39 -1.79769313486232E+308
40 -1.79769313486232E+308
41 -1.79769313486232E+308
42 -1.79769313486232E+308
43 -1.79769313486232E+308
44 -1.79769313486232E+308
45 -1.79769313486232E+308
46 -1.79769313486232E+308
47 -1.79769313486232E+308
48 -1.79769313486232E+308
49 -1.79769313486232E+308
50 -1.79769313486232E+308
51 -1.79769313486232E+308
52 -1.79769313486232E+308
53 -1.79769313486232E+308
54 -1.79769313486232E+308
55 -1.79769313486232E+308
56 -1.79769313486232E+308
57 -1.79769313486232E+308
58 -1.79769313486232E+308
59 -1.79769313486232E+308
60 -1.79769313486232E+308
61 -1.79769313486232E+308
62 -1.79769313486232E+308
63 -1.79769313486232E+308
64 -1.79769313486232E+308
65 -1.79769313486232E+308
66 -1.79769313486232E+308
67 -1.79769313486232E+308
68 -1.79769313486232E+308
69 -1.79769313486232E+308
70 -1.79769313486232E+308
71 -1.79769313486232E+308
72 -1.79769313486232E+308
73 -1.79769313486232E+308
74 -1.79769313486232E+308
75 -1.79769313486232E+308
76 -1.79769313486232E+308
77 -1.79769313486232E+308
78 -1.79769313486232E+308
79 -1.79769313486232E+308
80 -1.79769313486232E+308
81 -1.79769313486232E+308
82 -1.79769313486232E+308
83 -1.79769313486232E+308
84 -1.79769313486232E+308
85 -1.79769313486232E+308
86 -1.79769313486232E+308
87 -1.79769313486232E+308
88 -1.79769313486232E+308
89 -1.79769313486232E+308
90 -1.79769313486232E+308
91 -1.0
92 -1.0
93 -1.0
94 -1.0
95 -1.0
96 -1.0
97 -1.0
98 -1.0
99 -1.0
100 -1.0
101 -1.0
102 -1.0
103 -1.0
104 -1.0
105 -1.0
106 -1.0
107 -1.0
108 -1.0
109 -1.0
110 -1.0
111 -1.0
112 -1.0
113 -1.0
114 -1.0
115 -1.0
116 -1.0
117 -1.0
118 -1.0
119 -1.0
120 -1.0
121 -1.0
122 -1.0
123 -1.0
124 -1.0
125 -1.0
126 -1.0
127 -1.0
128 -1.0
129 -1.0
130 -1.0
131 -1.0
132 -1.0
133 -1.0
134 -1.0
135 -1.0
136 -1.0
137 -1.0
138 -1.0
139 -1.0
140 -1.0
141 -1.0
142 -1.0
143 -1.0
144 -1.0
145 -1.0
146 -1.0
147 -1.0
148 -1.0
149 -1.0
150 -1.0
151 -1.0
152 -1.0
153 -1.0
154 -1.0
155 -1.0
156 -1.0
157 -1.0
158 -1.0
159 -1.0
160 -1.0
161 -1.0
162 -1.0
163 -1.0
164 -1.0
165 -1.0
166 -1.0
167 -1.0
168 -1.0
169 -1.0
170 -1.0
171 -1.0
172 -1.0
173 -1.0
174 -1.0
175 -1.0
176 -1.0
177 -1.0
178 -1.0
179 -1.0
180 -1.0
0.0 # default right-hand-side value
180 # number of non-default right-hand-sides
1 56.0
2 -29.0
3 14.0
4 -22.0
5 -48.0
6 88.0
7 75.0
8 53.0
9 85.0
10 26.0
11 -11.0
12 90.0
13 29.0
14 13.0
15 84.0
16 28.0
17 -76.0
18 -61.0
19 5.0
20 -5.0
21 68.0
22 -81.0
23 92.0
24 16.0
25 97.0
26 -34.0
27 96.0
28 47.0
29 -11.0
30 34.0
31 -86.0
32 -96.0
33 -22.0
34 -68.0
35 -72.0
36 50.0
37 57.0
38 -48.0
39 -28.0
40 -57.0
41 86.0
42 -86.0
43 14.0
44 72.0
45 -78.0
46 -58.0
47 -1.0
48 49.0
49 27.0
50 -66.0
51 79.0
52 -86.0
53 -53.0
54 13.0
55 21.0
56 -87.0
57 27.0
58 55.0
59 23.0
60 76.0
61 34.0
62 -18.0
63 98.0
64 -12.0
65 36.0
66 -19.0
67 5.0
68 -97.0
69 -71.0
70 11.0
71 -83.0
72 65.0
73 53.0
74 50.0
75 -27.0
76 30.0
77 79.0
78 17.0
79 64.0
80 3.0
81 -44.0
82 22.0
83 56.0
84 -64.0
85 -26.0
86 87.0
87 -31.0
88 -1.0
89 -24.0
90 60.0
91 -1.0
92 -1.0
93 -1.0
94 -1.0
95 -1.0
96 -1.0
97 -1.0
98 -1.0
99 -1.0
100 -1.0
101 -1.0
102 -1.0
103 -1.0
104 -1.0
105 -1.0
106 -1.0
107 -1.0
108 -1.0
109 -1.0
110 -1.0
111 -1.0
112 -1.0
113 -1.0
114 -1.0
115 -1.0
116 -1.0
117 -1.0
118 -1.0
119 -1.0
120 -1.0
121 -1.0
122 -1.0
123 -1.0
124 -1.0
125 -1.0
126 -1.0
127 -1.0
128 -1.0
129 -1.0
130 -1.0
131 -1.0
132 -1.0
133 -1.0
134 -1.0
135 -1.0
136 -1.0
137 -1.0
138 -1.0
139 -1.0
140 -1.0
141 -1.0
142 -1.0
143 -1.0
144 -1.0
145 -1.0
146 -1.0
147 -1.0
148 -1.0
149 -1.0
150 -1.0
151 -1.0
152 -1.0
153 -1.0
154 -1.0
155 -1.0
156 -1.0
157 -1.0
158 -1.0
159 -1.0
160 -1.0
161 -1.0
162 -1.0
163 -1.0
164 -1.0
165 -1.0
166 -1.0
167 -1.0
168 -1.0
169 -1.0
170 -1.0
171 -1.0
172 -1.0
173 -1.0
174 -1.0
175 -1.0
176 -1.0
177 -1.0
178 -1.0
179 -1.0
180 -1.0
-1.79769313486232E+308 # default variable lower bound value
180 # number of non-default variable lower bounds
1 0.0
2 0.0
3 0.0
4 0.0
5 0.0
6 0.0
7 0.0
8 0.0
9 0.0
10 0.0
11 0.0
12 0.0
13 0.0
14 0.0
15 0.0
16 0.0
17 0.0
18 0.0
19 0.0
20 0.0
21 0.0
22 0.0
23 0.0
24 0.0
25 0.0
26 0.0
27 0.0
28 0.0
29 0.0
30 0.0
31 0.0
32 0.0
33 0.0
34 0.0
35 0.0
36 0.0
37 0.0
38 0.0
39 0.0
40 0.0
41 0.0
42 0.0
43 0.0
44 0.0
45 0.0
46 0.0
47 0.0
48 0.0
49 0.0
50 0.0
51 0.0
52 0.0
53 0.0
54 0.0
55 0.0
56 0.0
57 0.0
58 0.0
59 0.0
60 0.0
61 0.0
62 0.0
63 0.0
64 0.0
65 0.0
66 0.0
67 0.0
68 0.0
69 0.0
70 0.0
71 0.0
72 0.0
73 0.0
74 0.0
75 0.0
76 0.0
77 0.0
78 0.0
79 0.0
80 0.0
81 0.0
82 0.0
83 0.0
84 0.0
85 0.0
86 0.0
87 0.0
88 0.0
89 0.0
90 0.0
96 0.0
97 0.0
98 0.0
99 0.0
100 0.0
101 0.0
102 0.0
103 0.0
104 0.0
105 0.0
106 0.0
107 0.0
108 0.0
109 0.0
110 0.0
111 0.0
112 0.0
113 0.0
114 0.0
115 0.0
116 0.0
117 0.0
118 0.0
119 0.0
120 0.0
121 0.0
122 0.0
123 0.0
124 0.0
125 0.0
126 0.0
127 0.0
128 0.0
129 0.0
130 0.0
131 0.0
132 0.0
133 0.0
134 0.0
135 0.0
136 0.0
137 0.0
138 0.0
139 0.0
140 0.0
141 0.0
142 0.0
143 0.0
144 0.0
145 0.0
146 0.0
147 0.0
148 0.0
149 0.0
150 0.0
151 0.0
152 0.0
153 0.0
154 0.0
155 0.0
156 0.0
157 0.0
158 0.0
159 0.0
160 0.0
161 0.0
162 0.0
163 0.0
164 0.0
165 0.0
166 0.0
167 0.0
168 0.0
169 0.0
170 0.0
171 0.0
172 0.0
173 0.0
174 0.0
175 0.0
176 0.0
177 0.0
178 0.0
179 0.0
180 0.0
181 0.0
182 0.0
183 0.0
184 0.0
185 0.0
1.79769313486232E+308 # default variable upper bound value
90 # number of non-default variable upper bounds
1 1.0
2 1.0
3 1.0
4 1.0
5 1.0
6 1.0
7 1.0
8 1.0
9 1.0
10 1.0
11 1.0
12 1.0
13 1.0
14 1.0
15 1.0
16 1.0
17 1.0
18 1.0
19 1.0
20 1.0
21 1.0
22 1.0
23 1.0
24 1.0
25 1.0
26 1.0
27 1.0
28 1.0
29 1.0
30 1.0
31 1.0
32 1.0
33 1.0
34 1.0
35 1.0
36 1.0
37 1.0
38 1.0
39 1.0
40 1.0
41 1.0
42 1.0
43 1.0
44 1.0
45 1.0
46 1.0
47 1.0
48 1.0
49 1.0
50 1.0
51 1.0
52 1.0
53 1.0
54 1.0
55 1.0
56 1.0
57 1.0
58 1.0
59 1.0
60 1.0
61 1.0
62 1.0
63 1.0
64 1.0
65 1.0
66 1.0
67 1.0
68 1.0
69 1.0
70 1.0
71 1.0
72 1.0
73 1.0
74 1.0
75 1.0
76 1.0
77 1.0
78 1.0
79 1.0
80 1.0
81 1.0
82 1.0
83 1.0
84 1.0
85 1.0
86 1.0
87 1.0
88 1.0
89 1.0
90 1.0
0 # default variable type
90 # number of non-default variable types
1 1
2 1
3 1
4 1
5 1
6 1
7 1
8 1
9 1
10 1
11 1
12 1
13 1
14 1
15 1
16 1
17 1
18 1
19 1
20 1
21 1
22 1
23 1
24 1
25 1
26 1
27 1
28 1
29 1
30 1
31 1
32 1
33 1
34 1
35 1
36 1
37 1
38 1
39 1
40 1
41 1
42 1
43 1
44 1
45 1
46 1
47 1
48 1
49 1
50 1
51 1
52 1
53 1
54 1
55 1
56 1
57 1
58 1
59 1
60 1
61 1
62 1
63 1
64 1
65 1
66 1
67 1
68 1
69 1
70 1
71 1
72 1
73 1
74 1
75 1
76 1
77 1
78 1
79 1
80 1
81 1
82 1
83 1
84 1
85 1
86 1
87 1
88 1
89 1
90 1
0.0 # default variable primal value in starting point
0 # number of non-default variable primal values in starting point
0.0 # default constraint dual value in starting point
0 # number of non-default constraint dual values in starting point
0.0 # default variable bound dual value in starting point
0 # number of non-default variable bound dual values in starting point
0 # number of non-default variable names
0 # number of non-default constraint names
